% File represents an instance of a Composite Structure problem to be solved by a CP framework
% Created on 2025-03-26 10:41:22.418
T = 56;
n = 16;
m = 24;
edges = [(1, 2),
(5, 6),
(9, 10),
(14, 13),
(3, 2),
(6, 7),
(11, 10),
(15, 14),
(4, 3),
(8, 7),
(12, 11),
(16, 15),
(1, 5),
(5, 9),
(9, 13),
(2, 6),
(6, 10),
(14, 10),
(3, 7),
(11, 7),
(15, 11),
(4, 8),
(12, 8),
(12, 16)];
counts = [|20, 8, 20, 6,
|20, 8, 20, 2,
|20, 10, 20, 2,
|20, 14, 20, 2,
|20, 6, 20, 6,
|20, 6, 20, 2,
|20, 4, 20, 2,
|20, 8, 20, 2,
|20, 2, 20, 6,
|20, 2, 20, 2,
|22, 4, 22, 2,
|22, 10, 22, 2,
|20, 2, 20, 2,
|22, 4, 22, 2,
|22, 6, 22, 2,
|22, 8, 22, 2|];
